9 9
534 2 1 173 1 182 1 105 1
105 557 2 2 39 1 53 1 240
45 1 5 6 579 1 1 241 121
46 1 1 669 1 1 2 278 1
256 1 1 37 315 80 289 1 20
5 86 607 105 1 1 29 62 104
1 278 31 1 1 118 558 9 3
7 1 125 6 1 1 48 302 509
1 73 227 1 62 615 19 1 1
